(declare-fun bvlambda_11_ () (_ BitVec 9))
(declare-fun bvlambda_28_ ()Bool         )
(declare-fun a98 () (Array (_ BitVec 1) (_ BitVec 10)))
(assert
(let (($e1 false    ))
(let (($e9 (_ bv34 6)))
(let (($e17 (_ bv224 11)))
(let (($e116 (select a98 true       )))
(let (($e213                      bvlambda_11_ ))
(let (($e214 (concat $e213 $e9)))
(let (($e231        $e17       ))
(let (($e245 ((_ extract 9 0) $e231)))
(let (($e246 ((_ extract 10 1) $e214)))
(let (($e247 (store a98 $e1 $e246)))
(let (($e248 (store $e247 bvlambda_28_ $e245)))
(let (($e249 (select $e248 true       )))
(let (($e252 ((_ extract 8 0) $e116)))
(let (($e253 ((_ extract 8 0) $e249)))
                  (bvult $e253 $e252)
                                                                                                                                                                                                                                                                                                                                                                                                                                                                                                                                                                                                                                                                                                                                          ))  )))))             )                ))                                                                                                )                                                               )       )       ))
